
******************************************************************************
This program contains Ipopt, a library for large-scale nonlinear optimization.
 Ipopt is released as open source code under the Eclipse Public License (EPL).
         For more information visit http://projects.coin-or.org/Ipopt

This version of Ipopt was compiled from source code available at
    https://github.com/IDAES/Ipopt as part of the Institute for the Design of
    Advanced Energy Systems Process Systems Engineering Framework (IDAES PSE
    Framework) Copyright (c) 2018-2019. See https://github.com/IDAES/idaes-pse.

This version of Ipopt was compiled using HSL, a collection of Fortran codes
    for large-scale scientific computation.  All technical papers, sales and
    publicity material resulting from use of the HSL codes within IPOPT must
    contain the following acknowledgement:
        HSL, a collection of Fortran codes for large-scale scientific
        computation. See http://www.hsl.rl.ac.uk.
******************************************************************************

This is Ipopt version 3.13.2, running with linear solver ma27.

Number of nonzeros in equality constraint Jacobian...:     1588
Number of nonzeros in inequality constraint Jacobian.:        0
Number of nonzeros in Lagrangian Hessian.............:     2432

Total number of variables............................:      576
                     variables with only lower bounds:      128
                variables with lower and upper bounds:      384
                     variables with only upper bounds:        0
Total number of equality constraints.................:      570
Total number of inequality constraints...............:        0
        inequality constraints with only lower bounds:        0
   inequality constraints with lower and upper bounds:        0
        inequality constraints with only upper bounds:        0

iter    objective    inf_pr   inf_du lg(mu)  ||d||  lg(rg) alpha_du alpha_pr  ls
   0  0.0000000e+00 2.30e+00 9.99e-16  -1.0 0.00e+00    -  0.00e+00 0.00e+00   0
   1  7.8415067e+00 2.25e+00 1.68e+05  -1.0 1.06e+06    -  1.76e-02 1.96e-02h  1
   2  8.0395209e+00 2.25e+00 1.68e+05  -1.0 3.83e+06    -  1.89e-03 1.25e-04h  8
   3  8.8520239e+00 2.25e+00 1.67e+05  -1.0 3.46e+06    -  5.81e-04 5.10e-04f  7
   4  9.6885644e+00 2.26e+00 1.67e+05  -1.0 3.29e+06    -  5.34e-03 4.84e-04f  7
   5  1.0625947e+01 2.26e+00 1.67e+05  -1.0 2.94e+06    -  1.47e-03 5.33e-04f  7
   6  1.1562357e+01 2.26e+00 1.67e+05  -1.0 2.80e+06    -  4.09e-03 4.96e-04f  7
   7  1.2023709e+01 2.26e+00 1.67e+05  -1.0 2.65e+06    -  4.20e-03 2.35e-04h  8
   8  1.2138457e+01 2.26e+00 1.67e+05  -1.0 2.56e+06    -  4.59e-02 5.81e-05h 10
   9  1.2670097e+01 2.26e+00 1.67e+05  -1.0 2.18e+06    -  2.16e-03 3.01e-04f  8
iter    objective    inf_pr   inf_du lg(mu)  ||d||  lg(rg) alpha_du alpha_pr  ls
  10  1.3208660e+01 2.26e+00 1.67e+05  -1.0 2.16e+06    -  9.86e-03 2.96e-04f  8
  11  1.3488299e+01 2.26e+00 1.67e+05  -1.0 2.19e+06    -  3.59e-03 1.54e-04f  9
  12  2.3176507e+02 1.25e+01 4.34e+06  -1.0 2.20e+06    -  3.10e-02 4.00e-02w  1
  13  2.3772544e+02 1.25e+01 4.35e+06  -1.0 8.52e+06  -4.0 2.42e-02 2.70e-04w  1
  14  2.6375213e+02 1.25e+01 4.33e+06  -1.0 8.69e+06  -4.5 1.60e-03 1.23e-03w  1
  15  1.3773795e+01 2.26e+00 1.67e+05  -1.0 4.37e+07  -5.0 3.10e-02 1.56e-04f  8
  16  1.4107030e+01 2.26e+00 1.67e+05  -1.0 2.31e+06    -  2.74e-03 1.92e-04f  9
  17  1.5518469e+01 2.26e+00 1.67e+05  -1.0 2.32e+06    -  2.70e-02 7.80e-04f  7
  18  1.6254167e+01 2.26e+00 1.67e+05  -1.0 2.40e+06    -  3.56e-03 4.06e-04f  8
  19  1.6620278e+01 2.26e+00 1.67e+05  -1.0 2.41e+06    -  4.56e-02 1.98e-04h  9
iter    objective    inf_pr   inf_du lg(mu)  ||d||  lg(rg) alpha_du alpha_pr  ls
  20  1.7285090e+01 2.26e+00 1.67e+05  -1.0 2.52e+06    -  3.82e-03 3.72e-04h  8
  21  1.7956756e+01 2.26e+00 1.66e+05  -1.0 2.53e+06    -  4.87e-02 3.66e-04h  8
  22  1.9305472e+01 2.25e+00 1.66e+05  -1.0 2.62e+06    -  4.62e-03 7.27e-04h  7
  23  2.0697812e+01 2.25e+00 1.66e+05  -1.0 2.62e+06    -  4.81e-02 7.06e-04h  7
  24  2.3800891e+01 2.25e+00 1.65e+05  -1.0 2.69e+06    -  6.67e-03 1.47e-03h  6
  25  2.9225683e+02 8.31e+01 3.99e+06  -1.0 2.67e+06    -  6.54e-02 4.50e-02w  1
  26  5.1838344e+02 8.23e+01 4.94e+06  -1.0 8.38e+06  -5.4 1.86e-02 9.19e-03w  1
  27  5.3375236e+02 8.23e+01 4.94e+06  -1.0 8.16e+06    -  1.57e-02 7.05e-04w  1
  28  3.9033940e+01 2.26e+00 1.52e+05  -1.0 1.23e+07    -  6.54e-02 5.63e-03h  3
  29  4.1635449e+01 2.26e+00 1.52e+05  -1.0 2.86e+06    -  1.94e-02 8.00e-04h  7
iter    objective    inf_pr   inf_du lg(mu)  ||d||  lg(rg) alpha_du alpha_pr  ls
  30  4.3089520e+01 2.26e+00 1.52e+05  -1.0 2.68e+06    -  6.99e-02 4.36e-04h  8
  31  4.3954768e+01 2.26e+00 1.51e+05  -1.0 2.74e+06    -  3.59e-02 2.63e-04h  9
  32  4.4915437e+01 2.26e+00 1.51e+05  -1.0 3.04e+06    -  7.28e-02 2.99e-04h  9
  33  4.6380078e+01 2.26e+00 1.51e+05  -1.0 3.49e+06    -  7.31e-02 4.79e-04h  8
  34  5.0253845e+01 2.26e+00 1.51e+05  -1.0 3.95e+06    -  6.52e-02 1.23e-03h  7
  35  6.2896991e+01 2.25e+00 1.51e+05  -1.0 4.39e+06    -  6.19e-02 2.99e-03h  6
  36  1.1719523e+02 2.23e+00 1.52e+05  -1.0 4.97e+06    -  7.37e-02 6.86e-03h  5
  37  9.3814879e+02 2.11e+00 1.91e+05  -1.0 6.10e+06    -  7.15e-02 3.07e-02h  3
  38  2.2010517e+04 3.94e+01 8.43e+06  -1.0 1.02e+07    -  8.59e-02 1.25e-01w  1
  39  2.3492526e+04 3.85e+01 3.47e+06  -1.0 1.53e+07    -  6.98e-02 2.26e-02w  1
iter    objective    inf_pr   inf_du lg(mu)  ||d||  lg(rg) alpha_du alpha_pr  ls
  40  3.2872278e+04 3.76e+01 4.22e+06  -1.0 1.53e+07    -  4.59e-03 2.31e-02w  1
  41  3.5738033e+03 2.04e+00 2.17e+05  -1.0 2.56e+07    -  8.59e-02 3.12e-02h  2
  42  3.7889456e+03 2.03e+00 2.09e+05  -1.0 1.54e+07    -  3.56e-02 5.82e-03h  4
  43  3.6906409e+03 2.01e+00 2.12e+05  -1.0 7.05e+06  -5.9 2.75e-02 3.12e-03f  5
  44  3.5308506e+03 2.07e+00 2.16e+05  -1.0 2.12e+08    -  1.13e-03 1.43e-04f  6
  45  3.3089479e+03 2.07e+00 2.15e+05  -1.0 1.46e+08    -  5.09e-04 2.60e-04f  5
  46  3.1261008e+03 2.12e+00 1.91e+05  -1.0 6.42e+06    -  6.93e-02 4.84e-03f  3
  47  3.0234154e+03 2.16e+00 1.91e+05  -1.0 7.49e+06  -6.4 8.77e-02 4.00e-03f  3
  48  2.3423154e+03 2.58e+00 2.75e+05  -1.0 5.31e+07  -6.9 1.65e-02 3.09e-03f  1
  49  2.3651380e+03 2.58e+00 2.75e+05  -1.0 3.51e+06    -  7.69e-02 1.53e-03h  1
iter    objective    inf_pr   inf_du lg(mu)  ||d||  lg(rg) alpha_du alpha_pr  ls
  50  3.3929004e+03 2.48e+00 3.00e+05  -1.0 4.61e+06    -  7.16e-02 3.89e-02h  2
  51  4.4471085e+03 2.34e+00 2.89e+05  -1.0 3.28e+06    -  2.75e-01 5.70e-02h  3
  52  4.5395998e+03 2.34e+00 2.86e+05  -1.0 3.15e+06    -  2.14e-01 8.60e-03h  6
  53  5.0168617e+03 2.28e+00 2.80e+05  -1.0 1.49e+06    -  3.72e-01 2.91e-02h  4
  54  6.5467015e+03 2.04e+00 5.21e+05  -1.0 3.81e+06    -  1.61e-01 1.09e-01h  2
  55  9.3120236e+03 1.18e+00 3.82e+05  -1.0 7.78e+05  -6.4 3.97e-01 4.19e-01h  1
  56  2.0775030e+04 3.77e+00 3.60e+06  -1.0 7.05e+05    -  1.79e-01 9.90e-01h  1
  57  2.0737679e+04 3.66e+00 3.53e+06  -1.0 3.16e+05  -5.1 2.13e-02 2.25e-02f  1
  58  2.0456594e+04 3.56e+00 4.87e+06  -1.0 2.98e+05  -5.6 2.01e-01 1.17e-01F  1
  59  1.9632864e+04 1.70e+00 1.32e+06  -1.0 3.55e+05  -6.1 6.21e-01 5.96e-01f  1
iter    objective    inf_pr   inf_du lg(mu)  ||d||  lg(rg) alpha_du alpha_pr  ls
  60  1.9635455e+04 1.70e+00 1.32e+06  -1.0 7.04e+04  -4.7 1.72e-03 3.39e-03F  1
  61  1.9656760e+04 1.60e+00 7.02e+05  -1.0 6.60e+04  -4.3 4.32e-01 4.95e-01h  2
  62  1.9560532e+04 6.44e+00 2.01e+05  -1.0 4.48e+04  -4.8 8.40e-01 7.17e-01f  1
  63  1.9461489e+04 6.28e+00 2.11e+05  -1.0 2.60e+05  -5.3 3.72e-02 7.86e-03H  1
  64  1.9668881e+04 2.69e+00 1.98e+05  -1.0 4.28e+04  -4.8 8.48e-01 9.90e-01h  1
  65  1.9599545e+04 4.17e+00 2.44e+05  -1.0 2.91e+04  -5.3 9.47e-01 9.90e-01f  1
  66  1.9557680e+04 1.02e+00 4.12e+07  -1.0 1.95e+04  -5.8 9.10e-01 9.90e-01f  1
  67  1.8890834e+04 1.02e+00 1.95e+09  -1.0 1.37e+07    -  4.20e-02 3.12e-03f  1
  68  1.4874592e+04 7.86e-01 4.08e+10  -1.0 1.09e+06    -  9.90e-01 2.28e-01f  1
  69  9.3665631e+03 3.99e+00 1.07e+09  -1.0 4.18e+05    -  1.00e+00 9.90e-01f  1
iter    objective    inf_pr   inf_du lg(mu)  ||d||  lg(rg) alpha_du alpha_pr  ls
  70  9.4761578e+03 9.67e-01 3.37e+12  -1.0 9.48e+04    -  1.00e+00 4.95e-01h  2
  71  9.4644468e+03 3.57e+00 8.37e+12  -1.0 5.23e+04    -  1.00e+00 4.95e-01f  2
  72  9.4840283e+03 1.18e+00 3.03e+13  -1.0 2.28e+04    -  1.00e+00 1.24e-01h  4
  73  8.3177546e+03 3.51e+00 6.01e+11  -1.0 1.57e+05    -  1.00e+00 9.90e-01f  1
  74  8.3606748e+03 1.74e+00 4.47e+14  -1.0 4.40e+04  -6.3 2.89e-01 1.39e-01h  1
In iteration 74, 32 Slacks too small, adjusting variable bounds
  75  9.0753107e+03 1.23e+00 1.98e+15  -1.0 1.52e+05  -6.7 1.00e+00 4.95e-01h  2
  76  8.0977737e+03 5.47e+00 1.93e+14  -1.0 4.75e+04  -7.2 9.33e-01 1.00e+00F  1
  77  7.2330777e+03 2.66e+00 4.62e+04  -1.0 1.46e+05  -7.7 1.00e+00 1.00e+00f  1
  78  7.1185112e+03 7.35e-02 9.24e+03  -1.0 1.61e+04  -6.4 1.00e+00 1.00e+00f  1
  79  7.1172101e+03 6.49e-02 9.16e+14  -2.5 2.07e+04  -6.8 9.88e-01 1.21e-01f  1
iter    objective    inf_pr   inf_du lg(mu)  ||d||  lg(rg) alpha_du alpha_pr  ls
  80  6.9839052e+03 6.36e-01 1.93e+03  -2.5 6.58e+04  -7.3 1.00e+00 1.00e+00f  1
  81  6.2978569e+03 4.70e-01 3.67e+03  -2.5 2.71e+05    -  1.00e+00 4.66e-01f  1
  82  6.2563192e+03 6.34e-01 2.06e+03  -2.5 1.29e+05    -  1.00e+00 5.00e-01f  2
  83  6.2929254e+03 5.12e-02 4.81e+02  -2.5 4.04e+04    -  1.00e+00 1.00e+00h  1
  84  6.2958493e+03 2.21e-02 6.81e+01  -2.5 3.23e+03    -  1.00e+00 1.00e+00h  1
  85  6.2962704e+03 2.06e-02 2.38e+13  -3.8 1.99e+04    -  9.49e-01 1.32e-01h  3
  86  6.2970150e+03 2.01e-02 2.47e+13  -3.8 8.06e+04    -  1.00e+00 2.35e-02h  5
  87  6.2970304e+03 2.01e-02 2.47e+13  -3.8 1.60e+04  -5.1 3.82e-01 3.10e-04h 11
  88  6.2970383e+03 2.01e-02 2.47e+13  -3.8 5.13e+04    -  1.00e+00 2.10e-04h  1
  89  6.2974234e+03 1.99e-02 2.45e+13  -3.8 4.95e+04    -  1.00e+00 7.81e-03h  8
iter    objective    inf_pr   inf_du lg(mu)  ||d||  lg(rg) alpha_du alpha_pr  ls
  90  6.2500688e+03 4.60e+02 2.26e+13  -3.8 2.30e+04    -  4.85e-02 7.72e-02H  1
  91  6.2428599e+03 4.57e+02 2.25e+13  -3.8 4.05e+05  -5.6 8.72e-01 5.53e-03f  1
  92  6.1903655e+03 3.58e+02 1.46e+13  -3.8 6.51e+05  -6.0 6.63e-03 3.50e-01f  1
  93  4.0768817e+03 3.50e+02 1.46e+13  -3.8 1.32e+08  -4.7 2.65e-04 1.59e-03f  1
  94r 4.0768817e+03 3.50e+02 1.00e+03   2.5 0.00e+00  -1.6 0.00e+00 1.56e-08R  2
  95r 4.0768740e+03 1.76e+02 1.04e+03   2.5 2.22e+05    -  7.01e-04 1.58e-03f  1
  96  4.1041395e+03 1.73e+02 3.40e+04  -3.8 1.13e+06    -  1.37e-01 1.64e-02h  1
  97  4.1028467e+03 1.72e+02 3.00e+04  -3.8 9.73e+05    -  9.64e-02 6.16e-03f  1
  98  4.0668128e+03 1.67e+02 9.84e+05  -3.8 3.60e+06    -  1.48e-01 2.87e-02f  1
  99  4.0017802e+03 1.66e+02 1.65e+06  -3.8 8.57e+06    -  2.58e-02 3.36e-03f  1
iter    objective    inf_pr   inf_du lg(mu)  ||d||  lg(rg) alpha_du alpha_pr  ls
 100  4.0016494e+03 1.66e+02 9.25e+06  -3.8 4.25e+08    -  1.79e-02 3.17e-07f  1
 101r 4.0016494e+03 1.66e+02 1.00e+03   2.2 0.00e+00    -  0.00e+00 2.38e-11R  2
 102r 4.0016490e+03 1.59e+02 1.01e+03   2.2 1.17e+05    -  4.16e-03 1.22e-03f  1
 103r 4.0016474e+03 1.28e+02 9.95e+02   2.2 6.85e+03    -  2.37e-02 5.62e-03f  1
 104  4.0875481e+03 1.27e+02 7.71e+06  -3.8 1.50e+07    -  2.22e-05 6.16e-03h  1
 105  4.1971606e+03 1.27e+02 1.14e+07  -3.8 7.84e+07    -  4.84e-06 9.45e-04h  5
 106  4.2151787e+03 1.27e+02 1.14e+07  -3.8 3.87e+07    -  2.17e-04 1.75e-04h  1
 107  4.2198895e+03 1.27e+02 1.14e+07  -3.8 3.89e+07    -  1.12e-03 4.83e-05h  1
 108  4.2548075e+03 1.27e+02 1.15e+07  -3.8 3.96e+07    -  1.47e-03 3.40e-04h  3
 109  4.2626529e+03 1.27e+02 1.15e+07  -3.8 3.06e+07    -  2.68e-03 9.57e-05h  7
iter    objective    inf_pr   inf_du lg(mu)  ||d||  lg(rg) alpha_du alpha_pr  ls
 110r 4.2626529e+03 1.27e+02 9.99e+02   2.1 0.00e+00  -2.1 0.00e+00 2.60e-07R  6
 111r 4.2626512e+03 1.05e+02 9.96e+02   2.1 1.82e+04    -  6.93e-03 3.03e-03f  1
 112  4.2625019e+03 1.05e+02 1.97e+02  -3.8 1.58e+07    -  4.75e-02 3.89e-06f  1
 113  4.2001096e+03 1.04e+02 4.21e+07  -3.8 1.03e+07    -  4.81e-02 1.50e-02f  1
 114  4.0029975e+03 1.04e+02 3.94e+07  -3.8 2.27e+08    -  8.14e-07 6.25e-04f  1
 115  4.0029760e+03 1.04e+02 3.94e+07  -3.8 1.60e+08    -  7.56e-04 1.99e-07f  1
 116  4.0029672e+03 1.04e+02 3.94e+07  -3.8 1.60e+08    -  6.55e-03 8.53e-08f  1
 117  3.9950787e+03 1.04e+02 3.86e+07  -3.8 1.43e+08    -  8.41e-04 3.45e-04f  5
 118  4.2200729e+03 1.03e+02 2.74e+07  -3.8 1.09e+08    -  1.87e-02 1.69e-03h  3
 119  4.6869211e+03 1.03e+02 3.13e+07  -3.8 1.39e+08    -  2.92e-03 1.30e-03h  4
iter    objective    inf_pr   inf_du lg(mu)  ||d||  lg(rg) alpha_du alpha_pr  ls
 120  5.1502605e+03 1.03e+02 3.48e+07  -3.8 5.92e+07    -  1.96e-06 2.13e-03h  5
 121  5.2105286e+03 1.03e+02 3.48e+07  -3.8 3.30e+07    -  3.72e-07 4.46e-04h  8
 122  5.2111023e+03 1.03e+02 3.48e+07  -3.8 5.18e+06  -2.5 6.79e-05 1.95e-05h  1
 123  5.8544653e+03 1.03e+02 4.29e+07  -3.8 3.06e+07    -  2.54e-06 4.51e-03h  5
 124  5.8549359e+03 1.03e+02 4.29e+07  -3.8 2.74e+06  -3.0 6.22e-06 2.95e-05h  1
 125r 5.8549359e+03 1.03e+02 9.99e+02   2.0 0.00e+00  -3.5 0.00e+00 4.30e-08R  2
 126r 5.8549372e+03 1.02e+02 9.99e+02   2.0 1.51e+05    -  1.23e-07 8.17e-06f  1
 127r 5.8549338e+03 4.96e+01 9.94e+02   2.0 8.65e+03    -  6.00e-05 6.11e-03f  1
 128  6.1034817e+03 4.89e+01 1.70e+05  -3.8 2.98e+06    -  7.45e-02 1.45e-02h  4
 129  6.2021505e+03 4.84e+01 1.86e+05  -3.8 1.78e+06    -  1.43e-02 8.78e-03h  4
iter    objective    inf_pr   inf_du lg(mu)  ||d||  lg(rg) alpha_du alpha_pr  ls
 130  6.2901039e+03 4.80e+01 1.98e+05  -3.8 1.28e+06    -  1.06e-01 9.99e-03h  5
 131  6.2939844e+03 4.79e+01 1.98e+05  -3.8 6.59e+05    -  1.94e-01 7.18e-04h  8
 132  6.2954745e+03 4.79e+01 1.98e+05  -3.8 6.20e+05    -  7.74e-02 2.99e-04h  9
 133  6.6592124e+03 4.44e+01 3.30e+05  -3.8 6.20e+05    -  8.06e-02 7.23e-02h  1
 134  6.6591998e+03 4.44e+01 3.30e+05  -3.8 6.37e+05    -  5.62e-01 5.40e-06f  1
 135  6.6652137e+03 4.40e+01 3.27e+05  -3.8 3.17e+05    -  2.08e-01 1.05e-02h  1
 136  6.6652453e+03 4.40e+01 3.27e+05  -3.8 2.82e+05    -  2.91e-01 1.87e-05h  1
 137  7.5075952e+03 2.76e+01 1.83e+05  -3.8 2.85e+05    -  4.45e-01 3.73e-01h  2
 138  6.7350359e+03 1.38e+01 1.18e+05  -3.8 6.95e+05    -  2.19e-01 5.00e-01f  2
 139  6.7338692e+03 1.37e+01 1.17e+05  -3.8 1.43e+05  -4.0 5.97e-03 5.61e-03f  1
iter    objective    inf_pr   inf_du lg(mu)  ||d||  lg(rg) alpha_du alpha_pr  ls
 140  6.7338668e+03 1.37e+01 1.17e+05  -3.8 3.20e+05    -  2.56e-01 1.05e-05h  1
 141  6.8464877e+03 1.03e+01 6.15e+05  -3.8 3.52e+05    -  5.22e-01 2.50e-01h  3
 142  6.9245931e+03 9.56e+00 4.91e+06  -3.8 1.40e+05  -4.4 7.00e-01 7.04e-02h  1
 143  7.2529494e+03 9.66e+00 1.23e+07  -3.8 1.13e+05  -4.9 6.73e-01 1.00e+00h  1
 144  7.2609586e+03 9.65e+00 1.23e+07  -3.8 2.74e+07  -3.6 1.41e-02 1.05e-04H  1
 145  7.1130517e+03 1.82e+01 5.26e+08  -3.8 2.73e+07  -4.1 2.14e-03 1.00e-03f  4
 146  7.0727275e+03 1.55e+01 4.50e+08  -3.8 7.03e+04  -1.8 1.72e-01 1.48e-01f  1
 147  6.8980044e+03 9.05e-01 1.01e+08  -3.8 5.96e+04  -2.3 2.62e-04 1.00e+00f  1
 148  6.9483271e+03 4.53e-01 9.04e+07  -3.8 4.61e+04  -2.8 1.02e-07 5.00e-01h  2
 149  6.9425948e+03 2.26e-01 4.38e+07  -3.8 9.67e+03  -3.3 1.88e-01 5.00e-01f  2
iter    objective    inf_pr   inf_du lg(mu)  ||d||  lg(rg) alpha_du alpha_pr  ls
 150  6.9352963e+03 1.41e-01 2.20e+07  -3.8 1.64e+04  -3.7 4.28e-01 5.00e-01f  2
 151  6.9337183e+03 1.32e-01 5.76e+06  -3.8 1.59e+03  -1.5 3.99e-01 1.00e+00f  1
 152  6.9298600e+03 8.47e-01 3.67e+09  -3.8 1.02e+03  -2.0 8.81e-01 1.00e+00f  1
 153  6.9327559e+03 2.59e-01 2.06e+11  -3.8 2.45e+03  -2.5 8.73e-01 1.00e+00h  1
 154  6.9319366e+03 2.50e-01 1.52e+10  -3.8 4.26e+04  -2.9 9.26e-01 3.73e-02f  4
 155  6.9297298e+03 9.88e-01 2.40e+09  -3.8 1.02e+05  -3.4 8.42e-01 1.58e-02f  4
 156  6.9170046e+03 8.31e-01 1.34e+08  -3.8 5.77e+04  -3.0 9.45e-01 1.58e-01f  1
 157  6.9170022e+03 8.31e-01 6.13e+06  -3.8 6.54e+04  -2.6 1.00e+00 2.23e-05h  1
 158  6.9170194e+03 8.31e-01 6.12e+06  -3.8 5.23e+04  -3.0 1.00e+00 6.94e-04h  1
 159  6.2858223e+03 1.72e+01 1.80e+08  -3.8 6.93e+04  -3.5 2.18e-01 3.36e-01H  1
iter    objective    inf_pr   inf_du lg(mu)  ||d||  lg(rg) alpha_du alpha_pr  ls
 160  6.4263839e+03 1.40e+01 1.73e+08  -3.8 4.20e+05  -3.1 8.56e-02 1.83e-01h  1
 161  6.6226788e+03 7.51e+00 7.94e+08  -3.8 1.34e+05  -3.6 1.46e-05 4.64e-01h  2
 162  6.6633094e+03 7.47e+00 7.88e+08  -3.8 9.68e+05  -3.1 1.30e-07 5.84e-03h  4
 163  6.7899187e+03 6.64e+00 7.47e+08  -3.8 1.47e+05  -2.7 4.52e-01 1.11e-01h  1
 164  6.8762688e+03 6.00e+00 6.87e+08  -3.8 1.03e+05  -2.3 1.45e-01 9.61e-02h  3
 165  6.8944384e+03 5.97e+00 6.83e+08  -3.8 3.78e+05  -2.8 4.93e-01 5.20e-03h  5
 166  6.8964849e+03 5.96e+00 6.82e+08  -3.8 1.16e+05  -2.3 2.29e-01 1.84e-03h  8
 167  6.8975562e+03 5.96e+00 6.81e+08  -3.8 4.46e+05  -2.8 3.04e-01 2.57e-04h  9
 168  6.8978113e+03 5.96e+00 6.81e+08  -3.8 1.31e+05  -2.4 3.84e-01 2.04e-04h 11
 169  7.0373038e+03 5.88e+00 6.59e+08  -3.8 5.44e+05  -2.9 1.03e-01 2.71e-02h  2
iter    objective    inf_pr   inf_du lg(mu)  ||d||  lg(rg) alpha_du alpha_pr  ls
 170  7.0436881e+03 5.85e+00 6.55e+08  -3.8 1.64e+05  -2.5 9.79e-01 5.22e-03h  5
 171  6.4431186e+03 1.39e+01 3.58e+08  -3.8 8.21e+04  -2.9 3.37e-04 2.04e-03H  1
 172  6.4773553e+03 1.39e+01 3.50e+08  -3.8 8.84e+06  -3.4 3.90e-06 5.37e-03h  4
 173  6.8279259e+03 1.28e+01 2.92e+08  -3.8 5.34e+05  -3.0 5.45e-01 7.83e-02h  2
 174  6.8700683e+03 1.25e+01 2.86e+08  -3.8 2.85e+05  -2.6 1.94e-01 1.92e-02h  4
 175  6.8870946e+03 1.25e+01 2.85e+08  -3.8 1.10e+06  -3.0 5.34e-01 2.08e-03h  5
 176  6.8960676e+03 1.25e+01 2.84e+08  -3.8 2.85e+05  -2.6 1.80e-01 3.94e-03h  6
 177  6.8970305e+03 1.24e+01 2.84e+08  -3.8 1.14e+06  -3.1 9.57e-02 1.12e-04h  9
 178  6.8973013e+03 1.24e+01 2.84e+08  -3.8 3.15e+05  -2.7 4.67e-01 1.07e-04h 11
 179  7.1565799e+03 1.22e+01 2.55e+08  -3.8 1.50e+06  -3.1 5.96e-02 2.13e-02h  1
iter    objective    inf_pr   inf_du lg(mu)  ||d||  lg(rg) alpha_du alpha_pr  ls
 180  7.1566310e+03 1.22e+01 2.55e+08  -3.8 1.73e+05  -2.7 1.00e+00 2.83e-05h  1
 181  7.1592437e+03 1.18e+01 2.46e+08  -3.8 7.13e+04  -3.2 1.27e-01 2.86e-02h  1
 182  8.7328869e+03 1.01e+01 9.49e+08  -3.8 6.96e+05  -3.7 6.06e-03 3.84e-01h  2
 183  8.7559755e+03 1.01e+01 9.57e+08  -3.8 5.41e+05  -1.4 4.71e-05 5.79e-03h  1
 184  8.9469511e+03 8.20e+00 7.96e+08  -3.8 6.84e+04  -1.9 1.66e-06 1.00e+00h  1
 185  1.1671517e+04 4.86e+00 2.23e+09  -3.8 1.62e+05  -2.4 1.74e-01 1.00e+00H  1
 186  1.1871645e+04 1.59e+00 5.42e+08  -3.8 9.49e+04  -2.9 1.00e+00 1.00e+00h  1
 187  1.1346308e+04 4.73e-01 2.72e+07  -3.8 2.30e+04  -3.3 4.37e-01 1.00e+00f  1
 188  1.1347245e+04 4.72e-01 2.71e+07  -3.8 2.53e+04  -2.0 1.00e+00 2.83e-03h  1
 189  1.1389793e+04 2.72e-01 1.47e+08  -3.8 6.69e+03  -1.6 1.22e-03 5.00e-01h  2
iter    objective    inf_pr   inf_du lg(mu)  ||d||  lg(rg) alpha_du alpha_pr  ls
 190  1.1566723e+04 2.05e-01 7.54e+07  -3.8 1.56e+04  -2.1 4.56e-01 1.00e+00h  1
 191  1.1644572e+04 1.94e-01 1.24e+08  -3.8 9.80e+04  -1.6 7.13e-02 5.88e-02h  5
 192  1.1707311e+04 1.83e-01 5.20e+07  -3.8 7.07e+04  -1.2 2.14e-03 6.25e-02h  5
 193  1.1707568e+04 1.83e-01 1.42e+08  -3.8 1.98e+04   1.9 3.05e-07 6.80e-04h 10
 194  1.1707513e+04 1.83e-01 1.42e+08  -3.8 1.97e+04   1.5 4.74e-03 9.64e-07H  1
 195  1.1715441e+04 1.82e-01 9.91e+08  -3.8 8.09e+04   1.0 3.27e-07 5.67e-03h  8
 196  1.1721740e+04 1.79e-01 2.29e+09  -3.8 3.64e+04   1.4 1.98e-04 1.24e-02h  6
 197  1.1724056e+04 1.79e-01 2.08e+10  -3.8 3.75e+04   2.7 6.07e-01 3.68e-03h  8
 198  1.1742506e+04 1.72e-01 8.18e+10  -3.8 2.91e+04   2.3 2.72e-02 3.90e-02h  5
 199  1.1759303e+04 1.65e-01 1.41e+11  -3.8 2.15e+04   2.7 1.00e+00 4.83e-02h  5
iter    objective    inf_pr   inf_du lg(mu)  ||d||  lg(rg) alpha_du alpha_pr  ls
 200  1.1776139e+04 1.64e-01 3.02e+11  -3.8 7.76e+04   3.1 3.91e-02 1.31e-02h  5
 201  1.1777024e+04 1.65e-01 1.98e+11  -3.8 1.21e+04   4.4 8.42e-01 4.89e-03h  8
 202  1.1781051e+04 1.64e-01 5.77e+12  -3.8 4.39e+04   4.9 9.87e-02 5.47e-03h  7
 203  1.1783651e+04 1.65e-01 5.64e+12  -3.8 8.66e+04   4.4 3.99e-01 2.07e-03h  7
 204  1.1784517e+04 1.65e-01 5.61e+12  -3.8 1.38e+05   4.8 1.84e-02 5.15e-04h  8
 205  1.1865304e+04 5.71e+01 2.09e+19  -3.8 1.00e+05   6.1 1.82e-01 7.71e-02w  1
 206  9.0909531e+03 7.83e+01 9.97e+18  -3.8 1.24e+05   5.7 4.18e-05 9.25e-01w  1
 207  8.9051883e+03 7.32e+01 9.30e+18  -3.8 1.58e+06   6.1 1.40e-05 6.53e-02w  1
 208  1.1784595e+04 1.65e-01 5.61e+12  -3.8 1.14e+06   7.4 1.82e-01 7.53e-05h 10
 209  1.1784644e+04 1.65e-01 5.61e+12  -3.8 5.07e+04   6.9 5.08e-02 9.36e-05h 11
iter    objective    inf_pr   inf_du lg(mu)  ||d||  lg(rg) alpha_du alpha_pr  ls
 210  1.1784770e+04 1.65e-01 3.35e+13  -3.8 2.23e+04   7.4 1.00e+00 5.52e-04h 10
 211  1.1785994e+04 1.65e-01 2.05e+14  -3.8 2.56e+04   6.9 8.27e-02 4.67e-03h  7
 212  1.1787221e+04 1.65e-01 1.94e+14  -3.8 2.70e+05   6.4 7.32e-02 4.39e-04h  7
 213  1.1788427e+04 1.65e-01 1.44e+14  -3.8 1.50e+05   6.8 1.96e-02 7.78e-04h  7
 214  1.1789013e+04 1.66e-01 1.66e+15  -3.8 2.31e+04   8.2 5.78e-01 2.46e-03h  8
 215  1.1789070e+04 1.66e-01 1.66e+15  -3.8 6.84e+04   7.7 3.98e-02 7.76e-05h 11
 216  1.1789392e+04 1.65e-01 1.49e+15  -3.8 2.12e+04   8.1 6.42e-01 1.39e-03h  9
 217  1.1790020e+04 1.65e-01 1.03e+15  -3.8 2.21e+04   8.5 1.30e-01 2.64e-03h  8
 218  1.1863674e+04 3.03e+02 3.13e+23  -3.8 2.55e+04   9.9 2.38e-01 2.79e-01w  1
 219  1.1863134e+04 3.02e+02 3.13e+23  -3.8 3.94e+05   9.4 1.68e-01 7.18e-05w  1
iter    objective    inf_pr   inf_du lg(mu)  ||d||  lg(rg) alpha_du alpha_pr  ls
 220  1.1863134e+04 3.02e+02 3.13e+23  -3.8 1.32e+06   8.9 6.75e-02 3.25e-09w  1
 221  1.1790163e+04 1.65e-01 8.98e+15  -3.8 1.81e+07   8.4 2.38e-01 5.45e-04h  9
 222  1.1790305e+04 1.65e-01 5.78e+15  -3.8 3.02e+04   9.8 1.20e-01 4.61e-04h 10
 223  1.1790447e+04 1.65e-01 2.21e+14  -3.8 3.02e+05  10.2 7.00e-02 4.60e-05h 10
 224r 1.1790447e+04 1.65e-01 1.00e+03  -0.8 0.00e+00  15.1 0.00e+00 4.89e-07R 11
 225r 1.1790455e+04 1.65e-01 9.97e+02  -0.8 4.07e+03    -  4.79e-01 1.83e-03f  2
 226r 1.1790796e+04 3.78e-01 8.97e+02  -0.8 1.50e+03    -  3.03e-01 1.01e-01f  1
 227r 1.1790971e+04 3.66e-01 8.68e+02  -0.8 9.94e+02    -  7.02e-03 3.28e-02f  1
 228r 1.1791029e+04 3.62e-01 8.59e+02  -0.8 8.11e+02    -  7.38e-03 1.21e-02f  1
 229r 1.1791051e+04 3.60e-01 8.41e+02  -0.8 5.49e+02    -  3.46e-01 5.03e-03f  1
iter    objective    inf_pr   inf_du lg(mu)  ||d||  lg(rg) alpha_du alpha_pr  ls
 230r 1.1791406e+04 3.29e-01 7.71e+02  -0.8 4.68e+02    -  3.54e-02 8.98e-02f  1
 231r 1.1791676e+04 3.08e-01 6.54e+02  -0.8 4.21e+02    -  7.34e-01 6.56e-02f  1
 232r 1.1795403e+04 1.47e-01 2.18e+02  -0.8 4.07e+02    -  5.55e-01 9.22e-01f  1
 233  1.1794749e+04 1.45e-01 6.42e+01  -3.8 5.90e+03    -  3.28e-01 9.59e-03f  6
 234  1.1774273e+04 2.10e-01 1.71e+01  -3.8 7.52e+03    -  5.10e-01 2.50e-01f  3
 235  1.1748914e+04 1.96e-01 3.09e+03  -3.8 2.62e+04    -  5.57e-01 7.26e-02f  4
 236  1.1306199e+04 1.56e+01 3.39e+04  -3.8 3.62e+04    -  6.41e-01 1.00e+00f  1
MA27BD returned iflag=-4 and requires more memory.
 Increase liw from 28315 to 56630 and la from 31560 to 65200 and factorize again.
 237r 1.1306199e+04 1.56e+01 9.99e+02   1.2 0.00e+00  14.2 0.00e+00 4.22e-07R  8
 238r 1.1306216e+04 5.21e+00 9.96e+02   1.2 1.34e+04    -  2.71e-03 2.71e-03f  1
 239  1.0492951e+04 1.66e+00 1.23e+04  -3.8 1.04e+05    -  7.49e-01 1.00e+00f  1
iter    objective    inf_pr   inf_du lg(mu)  ||d||  lg(rg) alpha_du alpha_pr  ls
 240  9.8442807e+03 1.28e+00 9.26e+03  -3.8 1.88e+05    -  5.25e-01 2.51e-01f  1
 241  9.4526528e+03 2.82e+00 8.31e+03  -3.8 2.43e+05    -  3.89e-01 1.00e-01f  4
 242  6.4403183e+03 9.53e+00 5.10e+03  -3.8 2.75e+05    -  5.43e-01 6.39e-01f  1
 243  6.4295019e+03 9.36e+00 5.01e+03  -3.8 1.37e+05    -  4.03e-01 1.85e-02f  1
 244  6.0079987e+03 2.70e+00 6.34e+02  -3.8 1.63e+05    -  2.16e-04 1.00e+00f  1
 245  5.9659452e+03 2.98e+01 3.68e+05  -3.8 7.08e+04    -  8.00e-01 1.00e+00f  1
 246  5.9658231e+03 2.98e+01 8.00e+08  -3.8 1.27e+07    -  6.66e-02 7.61e-04f  6
 247  5.8594200e+03 2.14e+01 4.09e+09  -3.8 8.36e+04    -  5.72e-01 2.83e-01f  1
 248  5.8593696e+03 2.14e+01 1.87e+10  -3.8 4.17e+04    -  8.67e-01 3.53e-04h  1
 249  5.7689477e+03 1.12e+01 8.83e+08  -3.8 4.26e+04    -  9.47e-01 1.00e+00f  1
iter    objective    inf_pr   inf_du lg(mu)  ||d||  lg(rg) alpha_du alpha_pr  ls
 250  6.1500380e+03 6.83e+00 1.17e+11  -3.8 9.17e+04    -  9.28e-01 1.00e+00h  1
 251  6.0592146e+03 1.76e-01 6.63e+09  -3.8 6.63e+04    -  9.43e-01 1.00e+00f  1
 252  6.0761978e+03 9.38e-03 2.96e+01  -3.8 1.09e+04    -  1.00e+00 1.00e+00h  1
 253  6.0761978e+03 9.25e-03 9.17e+07  -3.8 5.46e-06  13.2 1.00e+00 1.00e+00h  1
MA27BD returned iflag=-4 and requires more memory.
 Increase liw from 56630 to 113260 and la from 65200 to 135882 and factorize again.
 254  6.0761993e+03 9.24e-03 9.32e+12  -3.8 1.32e+02  12.7 6.38e-05 1.46e-03h  1
 255r 6.0761993e+03 9.24e-03 1.00e+03  -2.0 0.00e+00  12.3 0.00e+00 1.09e-07R  2
 256r 6.0762668e+03 2.26e-03 9.99e+02  -2.0 1.07e+04    -  2.99e-03 1.02e-03f  1
 257  6.0764724e+03 2.11e-03 1.48e+04  -3.8 4.09e+02    -  9.95e-01 6.72e-02h  1
 258  6.0764724e+03 1.94e-03 1.81e+06  -3.8 2.18e-05  11.3 8.80e-04 9.01e-02h  1
 259  6.0801919e+03 1.69e-05 3.09e+05  -3.8 2.22e+03    -  9.97e-01 1.00e+00h  1
iter    objective    inf_pr   inf_du lg(mu)  ||d||  lg(rg) alpha_du alpha_pr  ls
 260  6.0801249e+03 1.44e-04 1.39e+09  -3.8 2.77e+03    -  9.97e-01 1.00e+00f  1
 261  6.0801250e+03 1.44e-04 2.78e+11  -3.8 1.00e+00  10.8 2.56e-01 6.03e-03h  1
 262r 6.0801250e+03 1.44e-04 1.00e+03  -3.8 0.00e+00  10.4 0.00e+00 4.56e-07R  2
 263r 6.0801257e+03 7.12e-06 9.93e+02  -3.8 3.04e+02    -  1.39e-02 1.04e-03f  1
 264  6.0799563e+03 2.71e-03 2.21e+04  -3.8 3.88e+01    -  9.77e-01 1.00e+00f  1
 265  6.0799562e+03 6.96e-04 1.41e+12  -3.8 2.16e+00   9.9 7.98e-01 1.00e+00h  1
 266  6.0799562e+03 1.86e-04 8.12e+10  -3.8 1.13e+00   9.4 9.96e-01 1.00e+00h  1
 267  6.0799562e+03 5.95e-05 7.31e+10  -3.8 6.45e-01   8.9 1.00e+00 1.00e+00h  1
 268  6.0799562e+03 4.66e-05 1.95e+11  -3.8 5.74e-01   8.5 1.00e+00 1.00e+00h  1
 269  6.0799561e+03 4.15e-05 1.29e+11  -3.8 7.91e-01   8.0 1.00e+00 3.71e-01h  2
iter    objective    inf_pr   inf_du lg(mu)  ||d||  lg(rg) alpha_du alpha_pr  ls
 270  6.0799559e+03 4.10e-05 1.20e+11  -3.8 4.04e+00   7.5 7.20e-02 1.37e-02h  1
 271r 6.0799559e+03 4.10e-05 1.00e+03  -3.8 0.00e+00   7.0 0.00e+00 3.11e-07R  2
 272r 6.0801121e+03 1.64e-04 7.23e+02  -3.8 3.19e+03    -  6.03e-01 5.91e-03f  1
 273r 6.0801078e+03 1.46e-04 1.00e+03  -3.8 9.38e+00    -  6.74e-03 1.10e-01f  1
 274r 6.0800870e+03 6.88e-05 5.00e+02  -3.8 6.84e+00    -  1.93e-01 6.83e-01f  1
 275r 6.0800851e+03 3.11e-05 2.49e+02  -3.8 2.24e+00    -  5.03e-01 1.00e+00f  1
 276  6.0799517e+03 8.43e-05 5.59e+02  -3.8 1.44e+02    -  9.63e-01 8.64e-02f  1
 277  6.0745791e+03 1.50e-02 1.47e+03  -3.8 1.09e+03    -  9.73e-01 1.00e+00f  1
 278  6.0382721e+03 9.62e-03 8.02e+04  -3.8 8.59e+03    -  9.83e-01 1.00e+00f  1
 279  6.0586804e+03 4.75e-03 1.49e+10  -3.8 6.84e+03    -  9.85e-01 5.00e-01h  2
iter    objective    inf_pr   inf_du lg(mu)  ||d||  lg(rg) alpha_du alpha_pr  ls
 280  6.0795984e+03 1.48e-03 2.06e+08  -3.8 3.39e+03    -  9.97e-01 1.00e+00h  1
 281  6.0795198e+03 9.88e-07 1.07e-03  -3.8 3.59e+01    -  1.00e+00 1.00e+00f  1
 282  6.0795149e+03 3.06e-10 2.26e-04  -8.6 4.07e-01    -  1.00e+00 1.00e+00f  1
 283  6.0795149e+03 1.27e-12 3.73e-09  -9.0 7.02e-06    -  1.00e+00 1.00e+00h  1

Number of Iterations....: 283

                                   (scaled)                 (unscaled)
Objective...............:   6.0795148759275144e+03    6.0795148759275144e+03
Dual infeasibility......:   3.7252902984619141e-09    3.7252902984619141e-09
Constraint violation....:   1.2686518502391664e-12    1.2686518502391664e-12
Complementarity.........:   9.0929564251507157e-10    9.0929564251507157e-10
Overall NLP error.......:   1.2686518502391664e-12    3.7252902984619141e-09


Number of objective function evaluations             = 1115
Number of objective gradient evaluations             = 272
Number of equality constraint evaluations            = 1115
Number of inequality constraint evaluations          = 0
Number of equality constraint Jacobian evaluations   = 293
Number of inequality constraint Jacobian evaluations = 0
Number of Lagrangian Hessian evaluations             = 283
Total CPU secs in IPOPT (w/o function evaluations)   =      0.962
Total CPU secs in NLP function evaluations           =     12.997

EXIT: Optimal Solution Found.
